DIMENSION : 33
EDGE_WEIGHT_TYPE : EUC_2D
DISTANCE : 340
CAPACITY : 160
NODE_COORD_SECTION
1 30.00000 40.00000 1   1
2 40.00000 30.00000 19  -1
3 31.00000 32.00000 24  -1
4 7.00000 38.00000 32  -1
5 17.00000 33.00000 26  -1
6 30.00000 48.00000 33 -1
7 51.00000 21.00000 22 -1
8 16.00000 57.00000 30 -1
9 52.00000 64.00000 18 -1
10 8.00000 52.00000 31 -1
11 13.00000 13.00000 27 -1
12 52.00000 33.00000 21 -1
13 42.00000 57.00000 29 -1
14 5.00000 25.00000 25 -1
15 62.00000 42.00000 28 -1
16 17.00000 63.00000 20 -1
17 42.00000 41.00000 23 -1
18 49.00000 49.00000 -1 9
19 58.00000 48.00000 -1 2
20 17.00000 63.00000 -1 16
21 21.00000 47.00000 -1 12
22 20.00000 26.00000 -1 7
23 49.00000 49.00000 -1 17
24 52.00000 41.00000 -1 3
25 36.00000 16.00000 -1 14
26 58.00000 27.00000 -1 5
27 12.00000 42.00000 -1 11
28 43.00000 67.00000 -1 15
29 31.00000 62.00000 -1 13
30 57.00000 58.00000 -1 8
31 27.00000 68.00000 -1 10
32 27.00000 23.00000 -1 4
33 30.00000 48.00000 -1 6
DEMAND_SECTION
1 0
2 1
3 1
4 1
5 1
6 1
7 1
8 1
9 1
10 1
11 1
12 1
13 1
14 1
15 1
16 1
17 1
18 -1
19 -1
20 -1
21 -1
22 -1
23 -1
24 -1
25 -1
26 -1
27 -1
28 -1
29 -1
30 -1
31 -1
32 -1
33 -1
DEPOT_SECTION
1
-1
EOF
